! B3LYP 6-31G(d,p) CPCM(water) NumFreq

* xyzfile 0 1 etanal.xyz
