! B3LYP 6-31G(d,p) CPCM(toluene) NumFreq

* xyzfile 0 1 o-nitrotolueno.xyz
