! B3LYP 6-31G(d,p) Freq

* xyzfile 0 1 p-nitrotolueno.xyz
